benchmarks/simple/result/bug5.output
true
(model
  (define-fun x0 () String
    "<")
  (define-fun x2 () String
    "sc>")
  (define-fun x1 () String
    "<")
  (define-fun x3 () String
    "sc>")
  (define-fun x4 () String
    "<sc>")
)